GLPSOL--GLPK LP/MIP Solver 5.0
Parameter(s) specified in the command line:
 --lp ../modeles/15_464.lp --log 15_464.log
Reading problem data from '../modeles/15_464.lp'...
7021 rows, 13950 columns, 48765 non-zeros
6960 integer variables, all of which are binary
20992 lines were read
GLPK Integer Optimizer 5.0
7021 rows, 13950 columns, 48765 non-zeros
6960 integer variables, all of which are binary
Preprocessing...
6870 constraint coefficient(s) were reduced
7021 rows, 13935 columns, 48750 non-zeros
6960 integer variables, all of which are binary
Scaling...
 A: min|aij| =  7.432e-05  max|aij| =  4.000e+00  ratio =  5.382e+04
GM: min|aij| =  6.565e-02  max|aij| =  1.523e+01  ratio =  2.320e+02
EQ: min|aij| =  4.310e-03  max|aij| =  1.000e+00  ratio =  2.320e+02
2N: min|aij| =  3.906e-03  max|aij| =  1.758e+00  ratio =  4.499e+02
Constructing initial basis...
Size of triangular part is 7021
Solving LP relaxation...
GLPK Simplex Optimizer 5.0
7021 rows, 13935 columns, 48750 non-zeros
      0: obj =   3.000000000e+01 inf =   7.450e+01 (31)
Perturbing LP to avoid stalling [199]...
    404: obj =   3.078881116e-01 inf =   0.000e+00 (0)
Removing LP perturbation [1226]...
*  1226: obj =  -3.872881356e+00 inf =   1.232e-13 (0) 1
OPTIMAL LP SOLUTION FOUND
Integer optimization begins...
Long-step dual simplex will be used
+  1226: mip =     not found yet >=              -inf        (1; 0)
+  1300: >>>>>  -3.872881356e+00 >=  -3.872881356e+00   0.0% (74; 0)
+  1300: mip =  -3.872881356e+00 >=     tree is empty   0.0% (0; 147)
INTEGER OPTIMAL SOLUTION FOUND
Time used:   2.0 secs
Memory used: 20.4 Mb (21433967 bytes)
